Version identifier: 22.1.0.0 | 2022-03-09 | 1a383f8ce
CPXPARAM_Threads                                 1
CPXPARAM_MIP_Strategy_VariableSelect             3
CPXPARAM_TimeLimit                               599.73730114399996
1 of 1 MIP starts provided solutions.
MIP start 'm1' defined initial solution with objective 93.0000.
Tried aggregator 1 time.
MIP Presolve eliminated 20 rows and 0 columns.
MIP Presolve modified 220 coefficients.
Reduced MIP has 901 rows, 2100 columns, and 25160 nonzeros.
Reduced MIP has 2100 binaries, 0 generals, 0 SOSs, and 0 indicators.
Presolve time = 0.06 sec. (54.87 ticks)
Probing time = 0.01 sec. (8.47 ticks)
Tried aggregator 1 time.
Detecting symmetries...
MIP Presolve modified 13 coefficients.
Reduced MIP has 901 rows, 2100 columns, and 25571 nonzeros.
Reduced MIP has 2100 binaries, 0 generals, 0 SOSs, and 0 indicators.
Presolve time = 0.03 sec. (28.51 ticks)
Probing time = 0.01 sec. (8.53 ticks)
Clique table members: 495.
MIP emphasis: balance optimality and feasibility.
MIP search method: dynamic search.
Parallel mode: none, using 1 thread.
Root relaxation solution time = 0.17 sec. (157.39 ticks)

        Nodes                                         Cuts/
   Node  Left     Objective  IInf  Best Integer    Best Bound    ItCnt     Gap

*     0+    0                           93.0000     5050.0000              --- 
      0     0      100.0000   431       93.0000      100.0000     1639    7.53%
Detecting symmetries...
      0     2      100.0000   107       93.0000      100.0000     1639    7.53%
Elapsed time = 2.30 sec. (2144.19 ticks, tree = 0.01 MB, solutions = 1)
      1     3      100.0000   359       93.0000      100.0000     4363    7.53%
      2     4      100.0000   415       93.0000      100.0000     5999    7.53%
      4     6      100.0000   207       93.0000      100.0000     7980    7.53%
      6     8      100.0000   204       93.0000      100.0000     9455    7.53%
      7     9      100.0000   273       93.0000      100.0000    12800    7.53%
      9    11      100.0000   259       93.0000      100.0000    13203    7.53%
     10    12      100.0000   289       93.0000      100.0000    15221    7.53%
     12    14      100.0000   297       93.0000      100.0000    18036    7.53%
     14    16      100.0000   313       93.0000      100.0000    18887    7.53%
     22    24      100.0000   209       93.0000      100.0000    24328    7.53%
Elapsed time = 6.33 sec. (6254.25 ticks, tree = 0.03 MB, solutions = 1)
     31    33      100.0000   154       93.0000      100.0000    27839    7.53%
     44    41       99.0000   100       93.0000      100.0000    35011    7.53%
*    55    34      integral     0       99.0000      100.0000    38439    1.01%
     62    35    infeasible             99.0000      100.0000    48160    1.01%
     70    37      100.0000    64       99.0000      100.0000    56286    1.01%
     78    37      100.0000    52       99.0000      100.0000    65335    1.01%
     89    40      100.0000    72       99.0000      100.0000    70644    1.01%
     99    40    infeasible             99.0000      100.0000    80378    1.01%
    109    40      100.0000    56       99.0000      100.0000    91584    1.01%
    117    40      100.0000    52       99.0000      100.0000   103442    1.01%
Elapsed time = 16.46 sec. (16092.08 ticks, tree = 0.16 MB, solutions = 2)
    130    41    infeasible             99.0000      100.0000   108395    1.01%
    140    41    infeasible             99.0000      100.0000   116632    1.01%
    148    43    infeasible             99.0000      100.0000   127902    1.01%
    159    44      100.0000    54       99.0000      100.0000   143271    1.01%
    170    47      100.0000    54       99.0000      100.0000   150422    1.01%
    183    48      100.0000    56       99.0000      100.0000   157656    1.01%
    191    46    infeasible             99.0000      100.0000   169068    1.01%
    200    47      100.0000    56       99.0000      100.0000   179108    1.01%
    208    45    infeasible             99.0000      100.0000   189755    1.01%
    215    44    infeasible             99.0000      100.0000   200130    1.01%
Elapsed time = 27.23 sec. (26475.93 ticks, tree = 0.19 MB, solutions = 2)
    223    43    infeasible             99.0000      100.0000   210748    1.01%
    230    44      100.0000    58       99.0000      100.0000   222126    1.01%
    240    42      100.0000    74       99.0000      100.0000   234028    1.01%
    248    34    infeasible             99.0000      100.0000   256091    1.01%
    255    35    infeasible             99.0000      100.0000   265491    1.01%
    262    36      100.0000    34       99.0000      100.0000   274660    1.01%
    277    37      100.0000    96       99.0000      100.0000   279049    1.01%
    294    40    infeasible             99.0000      100.0000   282345    1.01%
    313    45      100.0000    95       99.0000      100.0000   284927    1.01%
    335    47      100.0000   111       99.0000      100.0000   287829    1.01%
Elapsed time = 37.84 sec. (36870.54 ticks, tree = 0.13 MB, solutions = 2)
    361    49      100.0000    99       99.0000      100.0000   291183    1.01%
    388    52      100.0000    67       99.0000      100.0000   293939    1.01%
    416    52      100.0000    66       99.0000      100.0000   297303    1.01%
    444    54      100.0000    68       99.0000      100.0000   299928    1.01%
    472    54      100.0000    72       99.0000      100.0000   302873    1.01%
    493    59      100.0000    66       99.0000      100.0000   305546    1.01%
    519    61      100.0000    66       99.0000      100.0000   308691    1.01%
    553    53      100.0000    72       99.0000      100.0000   313376    1.01%
    580    54      100.0000    70       99.0000      100.0000   316378    1.01%
    611    53      100.0000    68       99.0000      100.0000   319444    1.01%
Elapsed time = 47.75 sec. (46699.89 ticks, tree = 0.14 MB, solutions = 2)
    637    51      100.0000   102       99.0000      100.0000   323378    1.01%
    664    52      100.0000    91       99.0000      100.0000   327062    1.01%
    686    60    infeasible             99.0000      100.0000   329345    1.01%
    718    60      100.0000    62       99.0000      100.0000   332481    1.01%
    749    57      100.0000    58       99.0000      100.0000   335511    1.01%
    778    58      100.0000    64       99.0000      100.0000   338320    1.01%
    808    58      100.0000    79       99.0000      100.0000   341927    1.01%
    839    57      100.0000    62       99.0000      100.0000   345210    1.01%
    867    61      100.0000    67       99.0000      100.0000   347983    1.01%
    893    63      100.0000    70       99.0000      100.0000   351223    1.01%
Elapsed time = 57.87 sec. (56397.32 ticks, tree = 0.15 MB, solutions = 2)
    928    60      100.0000    69       99.0000      100.0000   354356    1.01%
    963    57    infeasible             99.0000      100.0000   357465    1.01%
    994    58      100.0000    70       99.0000      100.0000   360472    1.01%
   1020    62      100.0000    72       99.0000      100.0000   363421    1.01%
   1048    66      100.0000    64       99.0000      100.0000   366568    1.01%
   1081    63    infeasible             99.0000      100.0000   370079    1.01%
   1115    57    infeasible             99.0000      100.0000   373460    1.01%
   1145    59      100.0000    85       99.0000      100.0000   376271    1.01%
   1175    57    infeasible             99.0000      100.0000   379707    1.01%
   1202    62      100.0000    81       99.0000      100.0000   382038    1.01%
Elapsed time = 68.08 sec. (66181.90 ticks, tree = 0.15 MB, solutions = 2)
   1233    61      100.0000    76       99.0000      100.0000   385353    1.01%
   1258    64      100.0000    62       99.0000      100.0000   388618    1.01%
   1283    70      100.0000    62       99.0000      100.0000   391284    1.01%
   1312    69      100.0000    62       99.0000      100.0000   394998    1.01%
   1339    72      100.0000    60       99.0000      100.0000   397790    1.01%
   1368    69      100.0000    64       99.0000      100.0000   401794    1.01%
   1400    65    infeasible             99.0000      100.0000   405157    1.01%
   1434    62      100.0000    88       99.0000      100.0000   408421    1.01%
   1466    60      100.0000    88       99.0000      100.0000   411594    1.01%
   1495    59      100.0000    83       99.0000      100.0000   414971    1.01%
Elapsed time = 78.42 sec. (76045.69 ticks, tree = 0.14 MB, solutions = 2)
   1523    61      100.0000    77       99.0000      100.0000   417843    1.01%
   1555    61    infeasible             99.0000      100.0000   420720    1.01%
   1587    61      100.0000    80       99.0000      100.0000   423833    1.01%
   1622    56      100.0000    82       99.0000      100.0000   427544    1.01%
   1648    56    infeasible             99.0000      100.0000   430887    1.01%
   1666    58      100.0000    75       99.0000      100.0000   435071    1.01%
   1682    62      100.0000    40       99.0000      100.0000   437494    1.01%
   1702    64      100.0000    44       99.0000      100.0000   440372    1.01%
   1720    66    infeasible             99.0000      100.0000   443993    1.01%
   1739    67      100.0000    46       99.0000      100.0000   448374    1.01%
Elapsed time = 88.35 sec. (85795.29 ticks, tree = 0.15 MB, solutions = 2)
   1760    68      100.0000    46       99.0000      100.0000   451617    1.01%
   1782    66    infeasible             99.0000      100.0000   455728    1.01%
   1804    66      100.0000    50       99.0000      100.0000   458740    1.01%
   1823    67      100.0000    45       99.0000      100.0000   462782    1.01%
   1842    66      100.0000    49       99.0000      100.0000   467158    1.01%
   1862    66      100.0000    42       99.0000      100.0000   470949    1.01%
   1884    66      100.0000    42       99.0000      100.0000   474931    1.01%
   1907    63    infeasible             99.0000      100.0000   479102    1.01%

Performing restart 1

Repeating presolve.
Tried aggregator 1 time.
MIP Presolve eliminated 1 rows and 100 columns.
Reduced MIP has 900 rows, 2000 columns, and 18310 nonzeros.
Reduced MIP has 2000 binaries, 0 generals, 0 SOSs, and 0 indicators.
Presolve time = 0.01 sec. (9.18 ticks)
Tried aggregator 1 time.
Reduced MIP has 900 rows, 2000 columns, and 18310 nonzeros.
Reduced MIP has 2000 binaries, 0 generals, 0 SOSs, and 0 indicators.
Presolve time = 0.01 sec. (11.52 ticks)
Represolve time = 0.09 sec. (56.07 ticks)
   1925     0      100.0000   124       99.0000       Cuts: 2   482420    1.01%
   1925     0      100.0000   141       99.0000      Cuts: 59   483039    1.01%
*  1925+    0                          100.0000      100.0000             0.00%
   1925     0        cutoff            100.0000      100.0000   483039    0.00%

Clique cuts applied:  1

Root node processing (before b&c):
  Real time             =    2.30 sec. (2144.27 ticks)
Sequential b&c:
  Real time             =   96.16 sec. (93809.74 ticks)
                          ------------
Total (root+branch&cut) =   98.46 sec. (95954.01 ticks)
Primal:	100
Dual:	100
Status:	Optimal
Time:	98.47
Sequence:
	18
	14
	2
	10
	19
	6
	5
	19
	1
	5
	4
	9
	5
	13
	7
	5
	13
	9
	5
	15
	9
	18
	15
	2
	16
	9
	15
	5
	9
	15
	10
	9
	13
	5
	6
	19
	10
	12
	17
	16
	3
	19
	5
	12
	4
	8
	6
	4
	8
	0
	15
	8
	1
	15
	11
	1
	13
	11
	0
	13
	8
	3
	4
	8
	1
	4
	11
	12
	13
	11
	2
	1
	14
	5
	3
	14
	10
	6
	14
	12
	10
	17
	12
	16
	17
	0
	16
	14
	2
	5
	19
	1
	5
	17
	1
	16
	17
	3
	16
	19
